c 
c G(n,p) graph
c graph gen seed     : 8570
c number of vertices : 30
c max number of edges: 500
c edge probability   : 0.400000
c data structure     : sparse
c
c           Graph Stats
c number of vertices  : 30
c nonisolated vertices: 30
c number of edges     : 173
c edge density        : 0.397701
c max degree          : 16
c avg degree          : 11.53
c min degree          : 6
p col 30 173
e 1 29
e 1 27
e 1 26
e 1 17
e 1 15
e 1 13
e 1 11
e 1 8
e 1 3
e 1 2
e 2 30
e 2 29
e 2 21
e 2 17
e 2 14
e 2 13
e 2 11
e 2 7
e 2 5
e 2 3
e 3 28
e 3 23
e 3 22
e 3 21
e 3 19
e 3 18
e 3 15
e 3 13
e 3 11
e 3 9
e 3 7
e 3 6
e 3 5
e 3 4
e 4 29
e 4 27
e 4 26
e 4 25
e 4 24
e 4 18
e 4 12
e 4 10
e 4 8
e 4 7
e 4 5
e 5 30
e 5 26
e 5 25
e 5 20
e 5 19
e 5 17
e 5 9
e 5 6
e 6 29
e 6 28
e 6 27
e 6 26
e 6 20
e 6 14
e 6 13
e 6 12
e 6 11
e 6 10
e 6 9
e 6 8
e 6 7
e 7 29
e 7 26
e 7 22
e 7 21
e 7 18
e 7 11
e 7 10
e 8 29
e 8 27
e 8 25
e 8 23
e 8 18
e 8 17
e 8 12
e 8 10
e 8 9
e 9 30
e 9 29
e 9 23
e 9 20
e 9 19
e 9 18
e 9 15
e 9 12
e 10 28
e 10 27
e 10 23
e 10 22
e 10 20
e 10 18
e 10 15
e 10 14
e 10 13
e 11 28
e 11 26
e 11 25
e 11 23
e 12 28
e 12 25
e 12 20
e 12 19
e 12 18
e 12 17
e 12 15
e 13 30
e 13 27
e 13 23
e 13 22
e 13 21
e 13 14
e 14 23
e 14 22
e 15 30
e 15 28
e 15 25
e 15 21
e 15 18
e 15 17
e 15 16
e 16 29
e 16 28
e 16 26
e 16 21
e 16 20
e 16 17
e 17 29
e 17 28
e 17 25
e 17 24
e 17 19
e 18 29
e 18 22
e 18 20
e 18 19
e 19 30
e 19 29
e 19 28
e 19 26
e 19 25
e 19 23
e 19 22
e 20 30
e 20 29
e 20 28
e 20 27
e 20 26
e 20 25
e 20 24
e 20 21
e 21 30
e 21 27
e 21 26
e 21 24
e 21 23
e 21 22
e 22 27
e 22 24
e 23 26
e 24 30
e 24 29
e 24 28
e 24 27
e 25 27
e 25 26
e 26 28
e 27 28
e 28 30
